
ACE v2.1 

  instance
    name:PyCSP

  Loading variables...

  Loading constraints...

  domains
    types:1  values:800  sizes:[4:200]
  variables
    count:200  arrays:1  degrees:[159:4,160:82,161:114]
  constraints
    count:7848  specific:48  groups:2  arities:[4:7800,10:39,40:5,80:4]
    distribution:[Cardinality:5,ConstraintIntension:7800,LexicographicLE:43]
    intStructures:(1,shared:7799)
    wck:3.15  cpu:2.75  mem:98M734

  Building solver... 

  solver
    guaranteedAC:true
    wck:3.21  cpu:2.812  mem:110M791

  preprocessing
    revisions:(31200,useless=31200)  values:800  unsat:false
    wck:0.147  cpu:2.89  mem:110M791

    run0  dpts:0..32  effs:747  fails:4  wrgs:37  wck:0.00

  global
    effs:747  revisions:(353083,useless=353006)
    stop:FULL_EXPLORATION  wrgs:37
    wck:3.60  cpu:3.015  mem:110M793

s UNSATISFIABLE

d WRONG DECISIONS 37
d FOUND SOLUTIONS 0
d COMPLETE EXPLORATION

c real time : 3.015
